158 300 59 79 29 145 163 141 117 70 258 68 240 232 87 297 224 156 69 219 15 247 61 144 263 34 91 197 229 117 300 45 174 58 176 202 255 90 95 71 160 52 190 99 35 276 148 259 132 216 229 146 214 41 41 176 126 183 73 55 299 72 151 225 182 78 178 136 168 272 258 27 75 147 177 110 175 24 120 6 240 48 203 153 140 295 29 265 178 153 19 228 224 222 204 157 299 134 292 166 105 249 244 232 148 121 93 22 144 212 79 135 11 33 40 150 27 120 114 256 272 185 184 247 158 139 104 156 272 147 74 129 148 17 60 47 137 204 68 33 115 198 167 125 230 258 26 256 77 191 264 100 127 147 47 284 37 202 192 9 